220 218 219 193 192 191 190 226 225 189 227 228 229 230 231 233 232 234 235 236 528 529 490 491 492 493 524 525 526 523 522 521 520 518 519 517 516 515 514 513 527 512 511 510 509 237 240 239 238 246 247 245 244 243 242 241 248 249 250 251 252 254 253 255 256 257 300 301 302 508 507 506 303 304 306 318 317 305 307 308 505 504 503 502 498 501 500 499 452 453 440 439 443 444 445 442 446 447 448 449 441 450 451 311 310 309 312 313 316 314 315 374 373 372 371 396 395 375 376 377 378 379 380 381 390 392 391 393 394 397 398 370 369 368 365 367 366 329 328 327 326 325 324 323 322 321 320 319 297 298 299 258 259 260 261 262 263 264 265 266 267 271 272 269 268 270 296 295 294 293 291 292 273 274 275 290 289 288 276 277 278 279 282 281 280 287 286 285 284 283 334 335 336 337 338 339 333 332 331 330 340 341 342 343 344 345 346 364 363 361 362 347 348 349 350 351 415 416 414 413 417 411 412 356 355 353 352 354 357 358 359 360 401 402 403 400 399 406 407 408 405 404 409 385 386 387 388 389 382 383 384 410 418 419 420 421 422 423 424 425 426 427 428 429 431 430 432 433 434 435 436 437 438 454 455 456 457 458 459 460 461 462 463 464 465 496 497 495 494 472 471 470 469 468 467 466 571 572 573 0 1 2 3 4 5 6 7 8 9 10 11 14 15 16 17 18 19 20 568 569 570 474 473 567 566 565 564 563 562 560 561 29 28 27 26 25 24 21 13 12 23 22 31 30 32 36 37 38 35 33 34 558 559 550 549 548 478 477 479 480 476 475 482 481 483 484 485 486 489 530 531 532 533 488 534 487 535 536 537 539 538 540 176 177 178 187 188 186 185 184 183 182 179 181 180 169 171 170 172 175 174 173 108 109 110 111 114 115 116 128 127 126 125 124 71 72 123 122 117 121 120 119 118 106 105 107 542 541 543 544 545 546 547 104 103 102 98 99 100 101 551 552 553 554 556 557 41 40 39 42 43 44 45 555 46 47 48 49 54 55 56 53 52 50 91 92 93 94 97 96 95 73 74 75 76 77 78 88 89 90 87 86 85 84 51 83 82 57 58 59 81 80 79 61 60 63 62 64 65 66 67 68 70 69 138 137 129 130 131 132 133 134 135 136 139 140 141 151 150 149 152 148 147 142 143 144 146 145 158 157 153 155 156 159 160 113 112 161 162 168 163 167 166 164 154 165 203 204 202 201 200 199 198 208 207 206 205 197 196 195 194 209 210 211 212 213 214 215 216 217 223 224 222 221